SECTION Graph
Nodes 20
Edges 25
E 1 6 20
E 1 12 56
E 1 14 54
E 1 17 8
E 1 19 58
E 2 10 81
E 2 12 93
E 3 8 55
E 4 15 25
E 4 16 86
E 6 17 90
E 6 19 23
E 7 8 10
E 7 13 88
E 8 12 50
E 8 15 30
E 9 16 85
E 10 11 89
E 11 17 13
E 11 19 0
E 14 16 9
E 14 17 48
E 14 18 18
E 17 20 70
E 18 20 96
END
SECTION Terminals
Terminals 4
T 1
T 4
T 18
T 19
END
s td 17 4 20
b 1 1 12 14 17
b 2 1 12 17 19
b 3 1 6 17 19
b 4 11 12 17 19
b 5 11 12 2
b 6 11 2 10
b 7 14 12 8
b 8 14 8 15
b 9 14 15 4
b 10 14 4 16
b 11 17 14 18
b 12 17 18 20
b 13 8 3
b 14 8 7
b 15 7 13
b 16 16 9
b 17 5
2 3
2 4
1 2
4 5
5 6
1 7
7 8
8 9
9 10
1 11
11 12
7 13
7 14
14 15
10 16
1 17
